DATASET = "thpack6";
INSTANCE = "068";

WIDTH = 233;
HEIGHT = 220;
LENGTH = 587;

NO_OF_SHAPES = 15;
size = [|
  60,44,36 |
  76,42,40 |
  65,49,48 |
  109,92,51 |
  93,42,31 |
  83,64,59 |
  96,90,55 |
  52,42,31 |
  98,72,61 |
  118,98,57 |
  48,31,25 |
  75,67,50 |
  120,66,32 |
  91,76,65 |
  102,71,49 |
|];

verticality = [|
  1,1,1 |
  1,1,1 |
  1,1,1 |
  0,1,1 |
  0,1,1 |
  1,1,1 |
  1,1,1 |
  1,1,1 |
  1,1,1 |
  0,1,1 |
  1,1,1 |
  1,1,1 |
  0,0,1 |
  1,1,1 |
  0,1,1 |
|];

box_count = [
  6,
  6,
  5,
  6,
  8,
  7,
  8,
  6,
  5,
  9,
  9,
  9,
  7,
  4,
  8,
];
